[VALIDATOR STDOUT]
Checking plan: /home/jfan5/Safety-gen/runs/benchmark/optic/grippers_20260205_114054/grippers/optic_results/grippers-n2-r21-o19-s19001.plan
Plan executed successfully - checking goal
Plan valid
Final value: 64 

Successful plans:
Value: 64
 /home/jfan5/Safety-gen/runs/benchmark/optic/grippers_20260205_114054/grippers/optic_results/grippers-n2-r21-o19-s19001.plan 64
